JOBS = 1..7;
MACHINES = 1..3;
SPEED = 2;
time = array3d(JOBS,MACHINES,1..SPEED,[93,16,67,12,110,19,237,42,224,40,42,7,27,4,104,18,171,30,46,8,200,36,242,43,132,23,95,17,112,20,118,21,147,26,35,6,172,30,92,16,186,33]);
energy = array3d(JOBS,MACHINES,1..SPEED,[39,85,51,88,33,82,9,65,10,67,65,93,76,96,35,83,18,74,63,92,13,69,8,65,26,79,38,84,32,81,30,81,22,77,70,94,17,74,39,85,15,71]);
precedence = array2d(JOBS,MACHINES,[2,0,1,1,2,0,0,1,2,0,2,1,1,0,2,1,2,0,2,1,0]);
ME = 1;
TE = 137;
st_old = array2d(JOBS,MACHINES,[195,10,77,153,552,35,8,77,309,0,277,187,288,181,480,35,405,0,420,313,276]);
SpeedScaling = array2d(JOBS,MACHINES,[1,1,1,2,2,1,1,1,1,2,2,2,1,1,1,1,1,1,1,1,2]);
